p cnf 585 2018
c input variables 15
c output variables 1
c literals 5570
-16 3 0
16 -3 6 0
-16 -6 0
-17 2 0
17 -2 3 5 6 0
-17 3 -6 0
-17 -5 0
17 -2 -3 5 -6 0
-17 -3 6 0
18 -17 0
-18 16 17 0
18 -16 0
-19 1 0
19 -1 3 4 6 0
-19 3 -6 0
-19 -4 0
19 -1 -3 4 -6 0
-19 -3 6 0
20 2 5 -19 0
-20 19 0
-20 2 -5 0
-20 -2 5 0
20 -2 -5 -19 0
21 -20 0
-21 18 20 0
21 -18 0
22 -1 21 0
22 -4 -21 0
-22 1 21 0
-22 4 -21 0
23 -2 21 0
23 -5 -21 0
-23 2 21 0
-23 5 -21 0
24 -3 21 0
24 -6 -21 0
-24 3 21 0
-24 6 -21 0
25 -4 21 0
25 -1 -21 0
-25 4 21 0
-25 1 -21 0
26 -5 21 0
26 -2 -21 0
-26 5 21 0
-26 2 -21 0
27 -6 21 0
27 -3 -21 0
-27 6 21 0
-27 3 -21 0
28 9 -27 0
-28 27 0
-28 -9 0
-29 26 0
29 8 9 -26 27 0
-29 9 -27 0
29 8 -9 -26 -27 0
-29 -9 27 0
-29 -8 0
30 -29 0
-30 28 29 0
30 -28 0
-31 25 0
31 7 9 -25 27 0
-31 9 -27 0
31 7 -9 -25 -27 0
-31 -9 27 0
-31 -7 0
32 8 26 -31 0
-32 31 0
-32 8 -26 0
-32 -8 26 0
32 -8 -26 -31 0
33 -32 0
-33 30 32 0
33 -30 0
34 -25 33 0
34 -7 -33 0
-34 25 33 0
-34 7 -33 0
35 -26 33 0
35 -8 -33 0
-35 26 33 0
-35 8 -33 0
36 -27 33 0
36 -9 -33 0
-36 27 33 0
-36 9 -33 0
37 -7 33 0
37 -25 -33 0
-37 7 33 0
-37 25 -33 0
38 -8 33 0
38 -26 -33 0
-38 8 33 0
-38 26 -33 0
39 -9 33 0
39 -27 -33 0
-39 9 33 0
-39 27 -33 0
40 12 -39 0
-40 39 0
-40 -12 0
-41 38 0
41 11 12 -38 39 0
-41 12 -39 0
41 11 -12 -38 -39 0
-41 -12 39 0
-41 -11 0
42 -41 0
-42 40 41 0
42 -40 0
-43 37 0
43 10 12 -37 39 0
-43 12 -39 0
43 10 -12 -37 -39 0
-43 -12 39 0
-43 -10 0
44 11 38 -43 0
-44 43 0
-44 11 -38 0
-44 -11 38 0
44 -11 -38 -43 0
45 -44 0
-45 42 44 0
45 -42 0
46 -37 45 0
46 -10 -45 0
-46 37 45 0
-46 10 -45 0
47 -38 45 0
47 -11 -45 0
-47 38 45 0
-47 11 -45 0
48 -39 45 0
48 -12 -45 0
-48 39 45 0
-48 12 -45 0
49 -10 45 0
49 -37 -45 0
-49 10 45 0
-49 37 -45 0
50 -11 45 0
50 -38 -45 0
-50 11 45 0
-50 38 -45 0
51 -12 45 0
51 -39 -45 0
-51 12 45 0
-51 39 -45 0
52 15 -51 0
-52 51 0
-52 -15 0
-53 50 0
53 14 15 -50 51 0
-53 15 -51 0
53 14 -15 -50 -51 0
-53 -15 51 0
-53 -14 0
54 -53 0
-54 52 53 0
54 -52 0
-55 49 0
55 13 15 -49 51 0
-55 15 -51 0
55 13 -15 -49 -51 0
-55 -15 51 0
-55 -13 0
56 14 50 -55 0
-56 55 0
-56 14 -50 0
-56 -14 50 0
56 -14 -50 -55 0
57 -56 0
-57 54 56 0
57 -54 0
58 -49 57 0
58 -13 -57 0
-58 49 57 0
-58 13 -57 0
59 -50 57 0
59 -14 -57 0
-59 50 57 0
-59 14 -57 0
60 -51 57 0
60 -15 -57 0
-60 51 57 0
-60 15 -57 0
61 -13 57 0
61 -49 -57 0
-61 13 57 0
-61 49 -57 0
62 -14 57 0
62 -50 -57 0
-62 14 57 0
-62 50 -57 0
63 -15 57 0
63 -51 -57 0
-63 15 57 0
-63 51 -57 0
-64 24 0
64 -24 36 0
-64 -36 0
-65 23 0
65 -23 24 35 36 0
-65 24 -36 0
-65 -35 0
65 -23 -24 35 -36 0
-65 -24 36 0
66 -65 0
-66 64 65 0
66 -64 0
-67 22 0
67 -22 24 34 36 0
-67 24 -36 0
-67 -34 0
67 -22 -24 34 -36 0
-67 -24 36 0
68 23 35 -67 0
-68 67 0
-68 23 -35 0
-68 -23 35 0
68 -23 -35 -67 0
69 -68 0
-69 66 68 0
69 -66 0
70 -22 69 0
70 -34 -69 0
-70 22 69 0
-70 34 -69 0
71 -23 69 0
71 -35 -69 0
-71 23 69 0
-71 35 -69 0
72 -24 69 0
72 -36 -69 0
-72 24 69 0
-72 36 -69 0
73 -34 69 0
73 -22 -69 0
-73 34 69 0
-73 22 -69 0
74 -35 69 0
74 -23 -69 0
-74 35 69 0
-74 23 -69 0
75 -36 69 0
75 -24 -69 0
-75 36 69 0
-75 24 -69 0
76 48 -75 0
-76 75 0
-76 -48 0
-77 74 0
77 47 48 -74 75 0
-77 48 -75 0
77 47 -48 -74 -75 0
-77 -48 75 0
-77 -47 0
78 -77 0
-78 76 77 0
78 -76 0
-79 73 0
79 46 48 -73 75 0
-79 48 -75 0
79 46 -48 -73 -75 0
-79 -48 75 0
-79 -46 0
80 47 74 -79 0
-80 79 0
-80 47 -74 0
-80 -47 74 0
80 -47 -74 -79 0
81 -80 0
-81 78 80 0
81 -78 0
82 -73 81 0
82 -46 -81 0
-82 73 81 0
-82 46 -81 0
83 -74 81 0
83 -47 -81 0
-83 74 81 0
-83 47 -81 0
84 -75 81 0
84 -48 -81 0
-84 75 81 0
-84 48 -81 0
85 -46 81 0
85 -73 -81 0
-85 46 81 0
-85 73 -81 0
86 -47 81 0
86 -74 -81 0
-86 47 81 0
-86 74 -81 0
87 -48 81 0
87 -75 -81 0
-87 48 81 0
-87 75 -81 0
88 60 -87 0
-88 87 0
-88 -60 0
-89 86 0
89 59 60 -86 87 0
-89 60 -87 0
89 59 -60 -86 -87 0
-89 -60 87 0
-89 -59 0
90 -89 0
-90 88 89 0
90 -88 0
-91 85 0
91 58 60 -85 87 0
-91 60 -87 0
91 58 -60 -85 -87 0
-91 -60 87 0
-91 -58 0
92 59 86 -91 0
-92 91 0
-92 59 -86 0
-92 -59 86 0
92 -59 -86 -91 0
93 -92 0
-93 90 92 0
93 -90 0
94 -85 93 0
94 -58 -93 0
-94 85 93 0
-94 58 -93 0
95 -86 93 0
95 -59 -93 0
-95 86 93 0
-95 59 -93 0
96 -87 93 0
96 -60 -93 0
-96 87 93 0
-96 60 -93 0
97 -58 93 0
97 -85 -93 0
-97 58 93 0
-97 85 -93 0
98 -59 93 0
98 -86 -93 0
-98 59 93 0
-98 86 -93 0
99 -60 93 0
99 -87 -93 0
-99 60 93 0
-99 87 -93 0
-100 72 0
100 -72 84 0
-100 -84 0
-101 71 0
101 -71 72 83 84 0
-101 72 -84 0
-101 -83 0
101 -71 -72 83 -84 0
-101 -72 84 0
102 -101 0
-102 100 101 0
102 -100 0
-103 70 0
103 -70 72 82 84 0
-103 72 -84 0
-103 -82 0
103 -70 -72 82 -84 0
-103 -72 84 0
104 71 83 -103 0
-104 103 0
-104 71 -83 0
-104 -71 83 0
104 -71 -83 -103 0
105 -104 0
-105 102 104 0
105 -102 0
106 -70 105 0
106 -82 -105 0
-106 70 105 0
-106 82 -105 0
107 -71 105 0
107 -83 -105 0
-107 71 105 0
-107 83 -105 0
108 -72 105 0
108 -84 -105 0
-108 72 105 0
-108 84 -105 0
109 -82 105 0
109 -70 -105 0
-109 82 105 0
-109 70 -105 0
110 -83 105 0
110 -71 -105 0
-110 83 105 0
-110 71 -105 0
111 -84 105 0
111 -72 -105 0
-111 84 105 0
-111 72 -105 0
112 96 -111 0
-112 111 0
-112 -96 0
-113 110 0
113 95 96 -110 111 0
-113 96 -111 0
113 95 -96 -110 -111 0
-113 -96 111 0
-113 -95 0
114 -113 0
-114 112 113 0
114 -112 0
-115 109 0
115 94 96 -109 111 0
-115 96 -111 0
115 94 -96 -109 -111 0
-115 -96 111 0
-115 -94 0
116 95 110 -115 0
-116 115 0
-116 95 -110 0
-116 -95 110 0
116 -95 -110 -115 0
117 -116 0
-117 114 116 0
117 -114 0
118 -109 117 0
118 -94 -117 0
-118 109 117 0
-118 94 -117 0
119 -110 117 0
119 -95 -117 0
-119 110 117 0
-119 95 -117 0
120 -111 117 0
120 -96 -117 0
-120 111 117 0
-120 96 -117 0
121 -94 117 0
121 -109 -117 0
-121 94 117 0
-121 109 -117 0
122 -95 117 0
122 -110 -117 0
-122 95 117 0
-122 110 -117 0
123 -96 117 0
123 -111 -117 0
-123 96 117 0
-123 111 -117 0
-124 108 0
124 -108 120 0
-124 -120 0
-125 107 0
125 -107 108 119 120 0
-125 108 -120 0
-125 -119 0
125 -107 -108 119 -120 0
-125 -108 120 0
126 -125 0
-126 124 125 0
126 -124 0
-127 106 0
127 -106 108 118 120 0
-127 108 -120 0
-127 -118 0
127 -106 -108 118 -120 0
-127 -108 120 0
128 107 119 -127 0
-128 127 0
-128 107 -119 0
-128 -107 119 0
128 -107 -119 -127 0
129 -128 0
-129 126 128 0
129 -126 0
130 -106 129 0
130 -118 -129 0
-130 106 129 0
-130 118 -129 0
131 -107 129 0
131 -119 -129 0
-131 107 129 0
-131 119 -129 0
132 -108 129 0
132 -120 -129 0
-132 108 129 0
-132 120 -129 0
133 -118 129 0
133 -106 -129 0
-133 118 129 0
-133 106 -129 0
134 -119 129 0
134 -107 -129 0
-134 119 129 0
-134 107 -129 0
135 -120 129 0
135 -108 -129 0
-135 120 129 0
-135 108 -129 0
136 3 -6 0
-136 6 0
-136 -3 0
-137 5 0
137 2 3 -5 6 0
-137 3 -6 0
137 2 -3 -5 -6 0
-137 -3 6 0
-137 -2 0
138 -137 0
-138 136 137 0
138 -136 0
-139 4 0
139 1 3 -4 6 0
-139 3 -6 0
139 1 -3 -4 -6 0
-139 -3 6 0
-139 -1 0
140 2 5 -139 0
-140 139 0
-140 2 -5 0
-140 -2 5 0
140 -2 -5 -139 0
141 -140 0
-141 138 140 0
141 -138 0
-142 141 0
142 -141 0
-143 0
-144 0
145 -144 0
-145 143 144 0
145 -143 0
-146 0
147 -146 0
-147 146 0
148 -147 0
-148 145 147 0
148 -145 0
-149 142 0
149 -142 -148 0
-149 148 0
150 -149 0
-150 142 149 0
150 -142 0
151 150 0
-151 -150 0
152 3 -9 0
-152 9 0
-152 -3 0
-153 8 0
153 2 3 -8 9 0
-153 3 -9 0
153 2 -3 -8 -9 0
-153 -3 9 0
-153 -2 0
154 -153 0
-154 152 153 0
154 -152 0
-155 7 0
155 1 3 -7 9 0
-155 3 -9 0
155 1 -3 -7 -9 0
-155 -3 9 0
-155 -1 0
156 2 8 -155 0
-156 155 0
-156 2 -8 0
-156 -2 8 0
156 -2 -8 -155 0
157 -156 0
-157 154 156 0
157 -154 0
-158 151 0
158 -151 -157 0
-158 157 0
-159 150 0
159 -150 158 0
-159 -158 0
-160 158 0
160 -158 0
-161 159 0
161 -159 160 0
-161 -160 0
162 6 -9 0
-162 9 0
-162 -6 0
-163 8 0
163 5 6 -8 9 0
-163 6 -9 0
163 5 -6 -8 -9 0
-163 -6 9 0
-163 -5 0
164 -163 0
-164 162 163 0
164 -162 0
-165 7 0
165 4 6 -7 9 0
-165 6 -9 0
165 4 -6 -7 -9 0
-165 -6 9 0
-165 -4 0
166 5 8 -165 0
-166 165 0
-166 5 -8 0
-166 -5 8 0
166 -5 -8 -165 0
167 -166 0
-167 164 166 0
167 -164 0
-168 161 0
168 -161 -167 0
-168 167 0
-169 159 0
169 -159 168 0
-169 -168 0
170 -168 0
-170 160 168 0
170 -160 0
171 169 0
-171 -169 0
-172 170 0
172 -170 -171 0
-172 171 0
-173 0
-174 0
175 -174 0
-175 173 174 0
175 -173 0
-176 0
177 -176 0
-177 176 0
178 -177 0
-178 175 177 0
178 -175 0
-179 172 0
179 -172 -178 0
-179 178 0
-180 169 0
180 -169 179 0
-180 -179 0
181 -179 0
-181 170 179 0
181 -170 0
-182 180 0
182 -180 -181 0
-182 181 0
-183 9 0
183 -9 12 0
-183 -12 0
-184 8 0
184 -8 9 11 12 0
-184 9 -12 0
-184 -11 0
184 -8 -9 11 -12 0
-184 -9 12 0
185 -184 0
-185 183 184 0
185 -183 0
-186 7 0
186 -7 9 10 12 0
-186 9 -12 0
-186 -10 0
186 -7 -9 10 -12 0
-186 -9 12 0
187 8 11 -186 0
-187 186 0
-187 8 -11 0
-187 -8 11 0
187 -8 -11 -186 0
188 -187 0
-188 185 187 0
188 -185 0
-189 182 0
189 -182 -188 0
-189 188 0
-190 180 0
190 -180 189 0
-190 -189 0
191 -189 0
-191 181 189 0
191 -181 0
192 190 0
-192 -190 0
193 191 -192 0
-193 192 0
-193 -191 0
194 3 -12 0
-194 12 0
-194 -3 0
-195 11 0
195 2 3 -11 12 0
-195 3 -12 0
195 2 -3 -11 -12 0
-195 -3 12 0
-195 -2 0
196 -195 0
-196 194 195 0
196 -194 0
-197 10 0
197 1 3 -10 12 0
-197 3 -12 0
197 1 -3 -10 -12 0
-197 -3 12 0
-197 -1 0
198 2 11 -197 0
-198 197 0
-198 2 -11 0
-198 -2 11 0
198 -2 -11 -197 0
199 -198 0
-199 196 198 0
199 -196 0
-200 193 0
200 -193 -199 0
-200 199 0
201 -200 0
-201 190 200 0
201 -190 0
202 -200 0
-202 191 200 0
202 -191 0
-203 201 0
203 -201 202 0
-203 -202 0
204 6 -12 0
-204 12 0
-204 -6 0
-205 11 0
205 5 6 -11 12 0
-205 6 -12 0
205 5 -6 -11 -12 0
-205 -6 12 0
-205 -5 0
206 -205 0
-206 204 205 0
206 -204 0
-207 10 0
207 4 6 -10 12 0
-207 6 -12 0
207 4 -6 -10 -12 0
-207 -6 12 0
-207 -4 0
208 5 11 -207 0
-208 207 0
-208 5 -11 0
-208 -5 11 0
208 -5 -11 -207 0
209 -208 0
-209 206 208 0
209 -206 0
-210 203 0
210 -203 -209 0
-210 209 0
211 -210 0
-211 201 210 0
211 -201 0
212 -210 0
-212 202 210 0
212 -202 0
213 211 0
-213 -211 0
-214 212 0
214 -212 -213 0
-214 213 0
215 9 -12 0
-215 12 0
-215 -9 0
-216 11 0
216 8 9 -11 12 0
-216 9 -12 0
216 8 -9 -11 -12 0
-216 -9 12 0
-216 -8 0
217 -216 0
-217 215 216 0
217 -215 0
-218 10 0
218 7 9 -10 12 0
-218 9 -12 0
218 7 -9 -10 -12 0
-218 -9 12 0
-218 -7 0
219 8 11 -218 0
-219 218 0
-219 8 -11 0
-219 -8 11 0
219 -8 -11 -218 0
220 -219 0
-220 217 219 0
220 -217 0
-221 214 0
221 -214 -220 0
-221 220 0
222 -221 0
-222 211 221 0
222 -211 0
223 -221 0
-223 212 221 0
223 -212 0
-224 222 0
224 -222 -223 0
-224 223 0
-225 0
-226 0
227 -226 0
-227 225 226 0
227 -225 0
-228 0
229 -228 0
-229 228 0
230 -229 0
-230 227 229 0
230 -227 0
-231 224 0
231 -224 -230 0
-231 230 0
232 -231 0
-232 222 231 0
232 -222 0
233 -231 0
-233 223 231 0
233 -223 0
234 232 0
-234 -232 0
235 233 -234 0
-235 234 0
-235 -233 0
236 3 -15 0
-236 15 0
-236 -3 0
-237 14 0
237 2 3 -14 15 0
-237 3 -15 0
237 2 -3 -14 -15 0
-237 -3 15 0
-237 -2 0
238 -237 0
-238 236 237 0
238 -236 0
-239 13 0
239 1 3 -13 15 0
-239 3 -15 0
239 1 -3 -13 -15 0
-239 -3 15 0
-239 -1 0
240 2 14 -239 0
-240 239 0
-240 2 -14 0
-240 -2 14 0
240 -2 -14 -239 0
241 -240 0
-241 238 240 0
241 -238 0
-242 235 0
242 -235 -241 0
-242 241 0
-243 232 0
243 -232 242 0
-243 -242 0
-244 233 0
244 -233 242 0
-244 -242 0
-245 242 0
245 -242 0
-246 243 0
246 -243 244 0
-246 -244 0
247 245 -246 0
-247 246 0
-247 -245 0
248 6 -15 0
-248 15 0
-248 -6 0
-249 14 0
249 5 6 -14 15 0
-249 6 -15 0
249 5 -6 -14 -15 0
-249 -6 15 0
-249 -5 0
250 -249 0
-250 248 249 0
250 -248 0
-251 13 0
251 4 6 -13 15 0
-251 6 -15 0
251 4 -6 -13 -15 0
-251 -6 15 0
-251 -4 0
252 5 14 -251 0
-252 251 0
-252 5 -14 0
-252 -5 14 0
252 -5 -14 -251 0
253 -252 0
-253 250 252 0
253 -250 0
-254 247 0
254 -247 -253 0
-254 253 0
-255 243 0
255 -243 254 0
-255 -254 0
-256 244 0
256 -244 254 0
-256 -254 0
257 -254 0
-257 245 254 0
257 -245 0
258 255 0
-258 -255 0
-259 256 0
259 -256 -258 0
-259 258 0
260 257 -259 0
-260 259 0
-260 -257 0
261 9 -15 0
-261 15 0
-261 -9 0
-262 14 0
262 8 9 -14 15 0
-262 9 -15 0
262 8 -9 -14 -15 0
-262 -9 15 0
-262 -8 0
263 -262 0
-263 261 262 0
263 -261 0
-264 13 0
264 7 9 -13 15 0
-264 9 -15 0
264 7 -9 -13 -15 0
-264 -9 15 0
-264 -7 0
265 8 14 -264 0
-265 264 0
-265 8 -14 0
-265 -8 14 0
265 -8 -14 -264 0
266 -265 0
-266 263 265 0
266 -263 0
-267 260 0
267 -260 -266 0
-267 266 0
-268 255 0
268 -255 267 0
-268 -267 0
-269 256 0
269 -256 267 0
-269 -267 0
270 -267 0
-270 257 267 0
270 -257 0
-271 268 0
271 -268 -269 0
-271 269 0
272 270 -271 0
-272 271 0
-272 -270 0
273 12 -15 0
-273 15 0
-273 -12 0
-274 14 0
274 11 12 -14 15 0
-274 12 -15 0
274 11 -12 -14 -15 0
-274 -12 15 0
-274 -11 0
275 -274 0
-275 273 274 0
275 -273 0
-276 13 0
276 10 12 -13 15 0
-276 12 -15 0
276 10 -12 -13 -15 0
-276 -12 15 0
-276 -10 0
277 11 14 -276 0
-277 276 0
-277 11 -14 0
-277 -11 14 0
277 -11 -14 -276 0
278 -277 0
-278 275 277 0
278 -275 0
-279 272 0
279 -272 -278 0
-279 278 0
-280 268 0
280 -268 279 0
-280 -279 0
-281 269 0
281 -269 279 0
-281 -279 0
282 -279 0
-282 270 279 0
282 -270 0
283 280 0
-283 -280 0
284 281 -283 0
-284 283 0
-284 -281 0
-285 282 0
285 -282 -284 0
-285 284 0
-286 0
-287 0
288 -287 0
-288 286 287 0
288 -286 0
-289 0
290 -289 0
-290 289 0
291 -290 0
-291 288 290 0
291 -288 0
-292 285 0
292 -285 -291 0
-292 291 0
-293 280 0
293 -280 292 0
-293 -292 0
-294 281 0
294 -281 292 0
-294 -292 0
295 -292 0
-295 282 292 0
295 -282 0
-296 293 0
296 -293 294 0
-296 -294 0
297 295 -296 0
-297 296 0
-297 -295 0
298 -1 297 0
298 -4 -297 0
-298 1 297 0
-298 4 -297 0
299 -2 297 0
299 -5 -297 0
-299 2 297 0
-299 5 -297 0
300 -3 297 0
300 -6 -297 0
-300 3 297 0
-300 6 -297 0
301 -4 297 0
301 -1 -297 0
-301 4 297 0
-301 1 -297 0
302 -5 297 0
302 -2 -297 0
-302 5 297 0
-302 2 -297 0
303 -6 297 0
303 -3 -297 0
-303 6 297 0
-303 3 -297 0
304 293 0
-304 -293 0
-305 294 0
305 -294 -304 0
-305 304 0
306 295 -305 0
-306 305 0
-306 -295 0
307 -298 306 0
307 -7 -306 0
-307 298 306 0
-307 7 -306 0
308 -299 306 0
308 -8 -306 0
-308 299 306 0
-308 8 -306 0
309 -300 306 0
309 -9 -306 0
-309 300 306 0
-309 9 -306 0
310 -7 306 0
310 -298 -306 0
-310 7 306 0
-310 298 -306 0
311 -8 306 0
311 -299 -306 0
-311 8 306 0
-311 299 -306 0
312 -9 306 0
312 -300 -306 0
-312 9 306 0
-312 300 -306 0
313 -301 0
-313 301 0
314 -302 0
-314 302 0
315 -303 0
-315 303 0
-316 293 0
316 -293 -294 0
-316 294 0
317 295 -316 0
-317 316 0
-317 -295 0
318 -307 317 0
318 -10 -317 0
-318 307 317 0
-318 10 -317 0
319 -308 317 0
319 -11 -317 0
-319 308 317 0
-319 11 -317 0
320 -309 317 0
320 -12 -317 0
-320 309 317 0
-320 12 -317 0
321 -10 317 0
321 -307 -317 0
-321 10 317 0
-321 307 -317 0
322 -11 317 0
322 -308 -317 0
-322 11 317 0
-322 308 -317 0
323 -12 317 0
323 -309 -317 0
-323 12 317 0
-323 309 -317 0
324 -313 317 0
324 -310 -317 0
-324 313 317 0
-324 310 -317 0
325 -314 317 0
325 -311 -317 0
-325 314 317 0
-325 311 -317 0
326 -315 317 0
326 -312 -317 0
-326 315 317 0
-326 312 -317 0
327 -310 317 0
327 -313 -317 0
-327 310 317 0
-327 313 -317 0
328 -311 317 0
328 -314 -317 0
-328 311 317 0
-328 314 -317 0
329 -312 317 0
329 -315 -317 0
-329 312 317 0
-329 315 -317 0
330 294 -304 0
-330 304 0
-330 -294 0
-331 295 0
331 -295 -330 0
-331 330 0
332 331 0
-332 -331 0
333 -318 332 0
333 -13 -332 0
-333 318 332 0
-333 13 -332 0
334 -319 332 0
334 -14 -332 0
-334 319 332 0
-334 14 -332 0
335 -320 332 0
335 -15 -332 0
-335 320 332 0
-335 15 -332 0
336 -13 332 0
336 -318 -332 0
-336 13 332 0
-336 318 -332 0
337 -14 332 0
337 -319 -332 0
-337 14 332 0
-337 319 -332 0
338 -15 332 0
338 -320 -332 0
-338 15 332 0
-338 320 -332 0
339 -324 332 0
339 -321 -332 0
-339 324 332 0
-339 321 -332 0
340 -325 332 0
340 -322 -332 0
-340 325 332 0
-340 322 -332 0
341 -326 332 0
341 -323 -332 0
-341 326 332 0
-341 323 -332 0
342 -321 332 0
342 -324 -332 0
-342 321 332 0
-342 324 -332 0
343 -322 332 0
343 -325 -332 0
-343 322 332 0
-343 325 -332 0
344 -323 332 0
344 -326 -332 0
-344 323 332 0
-344 326 -332 0
345 -327 0
-345 327 0
346 -328 0
-346 328 0
347 -329 0
-347 329 0
348 335 -341 0
-348 341 0
-348 -335 0
-349 340 0
349 334 335 -340 341 0
-349 335 -341 0
349 334 -335 -340 -341 0
-349 -335 341 0
-349 -334 0
350 -349 0
-350 348 349 0
350 -348 0
-351 339 0
351 333 335 -339 341 0
-351 335 -341 0
351 333 -335 -339 -341 0
-351 -335 341 0
-351 -333 0
352 334 340 -351 0
-352 351 0
-352 334 -340 0
-352 -334 340 0
352 -334 -340 -351 0
353 -352 0
-353 350 352 0
353 -350 0
-354 353 0
354 -353 0
-355 0
-356 0
357 -356 0
-357 355 356 0
357 -355 0
-358 0
359 -358 0
-359 358 0
360 -359 0
-360 357 359 0
360 -357 0
-361 354 0
361 -354 -360 0
-361 360 0
362 -361 0
-362 354 361 0
362 -354 0
363 362 0
-363 -362 0
364 335 -347 0
-364 347 0
-364 -335 0
-365 346 0
365 334 335 -346 347 0
-365 335 -347 0
365 334 -335 -346 -347 0
-365 -335 347 0
-365 -334 0
366 -365 0
-366 364 365 0
366 -364 0
-367 345 0
367 333 335 -345 347 0
-367 335 -347 0
367 333 -335 -345 -347 0
-367 -335 347 0
-367 -333 0
368 334 346 -367 0
-368 367 0
-368 334 -346 0
-368 -334 346 0
368 -334 -346 -367 0
369 -368 0
-369 366 368 0
369 -366 0
-370 363 0
370 -363 -369 0
-370 369 0
-371 362 0
371 -362 370 0
-371 -370 0
-372 370 0
372 -370 0
-373 371 0
373 -371 372 0
-373 -372 0
374 341 -347 0
-374 347 0
-374 -341 0
-375 346 0
375 340 341 -346 347 0
-375 341 -347 0
375 340 -341 -346 -347 0
-375 -341 347 0
-375 -340 0
376 -375 0
-376 374 375 0
376 -374 0
-377 345 0
377 339 341 -345 347 0
-377 341 -347 0
377 339 -341 -345 -347 0
-377 -341 347 0
-377 -339 0
378 340 346 -377 0
-378 377 0
-378 340 -346 0
-378 -340 346 0
378 -340 -346 -377 0
379 -378 0
-379 376 378 0
379 -376 0
-380 373 0
380 -373 -379 0
-380 379 0
-381 371 0
381 -371 380 0
-381 -380 0
382 -380 0
-382 372 380 0
382 -372 0
383 381 0
-383 -381 0
-384 382 0
384 -382 -383 0
-384 383 0
-385 0
-386 0
387 -386 0
-387 385 386 0
387 -385 0
-388 0
389 -388 0
-389 388 0
390 -389 0
-390 387 389 0
390 -387 0
-391 384 0
391 -384 -390 0
-391 390 0
-392 381 0
392 -381 391 0
-392 -391 0
393 -391 0
-393 382 391 0
393 -382 0
-394 392 0
394 -392 -393 0
-394 393 0
395 344 -347 0
-395 347 0
-395 -344 0
-396 346 0
396 343 344 -346 347 0
-396 344 -347 0
396 343 -344 -346 -347 0
-396 -344 347 0
-396 -343 0
397 -396 0
-397 395 396 0
397 -395 0
-398 345 0
398 342 344 -345 347 0
-398 344 -347 0
398 342 -344 -345 -347 0
-398 -344 347 0
-398 -342 0
399 343 346 -398 0
-399 398 0
-399 343 -346 0
-399 -343 346 0
399 -343 -346 -398 0
400 -399 0
-400 397 399 0
400 -397 0
-401 394 0
401 -394 -400 0
-401 400 0
-402 392 0
402 -392 401 0
-402 -401 0
403 -401 0
-403 393 401 0
403 -393 0
404 402 0
-404 -402 0
405 403 -404 0
-405 404 0
-405 -403 0
406 335 -344 0
-406 344 0
-406 -335 0
-407 343 0
407 334 335 -343 344 0
-407 335 -344 0
407 334 -335 -343 -344 0
-407 -335 344 0
-407 -334 0
408 -407 0
-408 406 407 0
408 -406 0
-409 342 0
409 333 335 -342 344 0
-409 335 -344 0
409 333 -335 -342 -344 0
-409 -335 344 0
-409 -333 0
410 334 343 -409 0
-410 409 0
-410 334 -343 0
-410 -334 343 0
410 -334 -343 -409 0
411 -410 0
-411 408 410 0
411 -408 0
-412 405 0
412 -405 -411 0
-412 411 0
413 -412 0
-413 402 412 0
413 -402 0
414 -412 0
-414 403 412 0
414 -403 0
-415 413 0
415 -413 414 0
-415 -414 0
416 341 -344 0
-416 344 0
-416 -341 0
-417 343 0
417 340 341 -343 344 0
-417 341 -344 0
417 340 -341 -343 -344 0
-417 -341 344 0
-417 -340 0
418 -417 0
-418 416 417 0
418 -416 0
-419 342 0
419 339 341 -342 344 0
-419 341 -344 0
419 339 -341 -342 -344 0
-419 -341 344 0
-419 -339 0
420 340 343 -419 0
-420 419 0
-420 340 -343 0
-420 -340 343 0
420 -340 -343 -419 0
421 -420 0
-421 418 420 0
421 -418 0
-422 415 0
422 -415 -421 0
-422 421 0
423 -422 0
-423 413 422 0
423 -413 0
424 -422 0
-424 414 422 0
424 -414 0
425 423 0
-425 -423 0
-426 424 0
426 -424 -425 0
-426 425 0
-427 344 0
427 -344 347 0
-427 -347 0
-428 343 0
428 -343 344 346 347 0
-428 344 -347 0
-428 -346 0
428 -343 -344 346 -347 0
-428 -344 347 0
429 -428 0
-429 427 428 0
429 -427 0
-430 342 0
430 -342 344 345 347 0
-430 344 -347 0
-430 -345 0
430 -342 -344 345 -347 0
-430 -344 347 0
431 343 346 -430 0
-431 430 0
-431 343 -346 0
-431 -343 346 0
431 -343 -346 -430 0
432 -431 0
-432 429 431 0
432 -429 0
-433 426 0
433 -426 -432 0
-433 432 0
434 -433 0
-434 423 433 0
434 -423 0
435 -433 0
-435 424 433 0
435 -424 0
-436 434 0
436 -434 -435 0
-436 435 0
-437 0
-438 0
439 -438 0
-439 437 438 0
439 -437 0
-440 0
441 -440 0
-441 440 0
442 -441 0
-442 439 441 0
442 -439 0
-443 436 0
443 -436 -442 0
-443 442 0
444 -443 0
-444 434 443 0
444 -434 0
445 -443 0
-445 435 443 0
445 -435 0
-446 444 0
446 -444 445 0
-446 -445 0
447 -333 446 0
447 -339 -446 0
-447 333 446 0
-447 339 -446 0
448 -334 446 0
448 -340 -446 0
-448 334 446 0
-448 340 -446 0
449 -335 446 0
449 -341 -446 0
-449 335 446 0
-449 341 -446 0
450 -339 446 0
450 -333 -446 0
-450 339 446 0
-450 333 -446 0
451 -340 446 0
451 -334 -446 0
-451 340 446 0
-451 334 -446 0
452 -341 446 0
452 -335 -446 0
-452 341 446 0
-452 335 -446 0
453 444 0
-453 -444 0
-454 445 0
454 -445 -453 0
-454 453 0
455 -447 454 0
455 -345 -454 0
-455 447 454 0
-455 345 -454 0
456 -448 454 0
456 -346 -454 0
-456 448 454 0
-456 346 -454 0
457 -449 454 0
457 -347 -454 0
-457 449 454 0
-457 347 -454 0
458 -345 454 0
458 -447 -454 0
-458 345 454 0
-458 447 -454 0
459 -346 454 0
459 -448 -454 0
-459 346 454 0
-459 448 -454 0
460 -347 454 0
460 -449 -454 0
-460 347 454 0
-460 449 -454 0
461 -450 0
-461 450 0
462 -451 0
-462 451 0
463 -452 0
-463 452 0
-464 444 0
464 -444 -445 0
-464 445 0
465 464 0
-465 -464 0
466 -455 465 0
466 -342 -465 0
-466 455 465 0
-466 342 -465 0
467 -456 465 0
467 -343 -465 0
-467 456 465 0
-467 343 -465 0
468 -457 465 0
468 -344 -465 0
-468 457 465 0
-468 344 -465 0
469 -342 465 0
469 -455 -465 0
-469 342 465 0
-469 455 -465 0
470 -343 465 0
470 -456 -465 0
-470 343 465 0
-470 456 -465 0
471 -344 465 0
471 -457 -465 0
-471 344 465 0
-471 457 -465 0
472 -461 465 0
472 -458 -465 0
-472 461 465 0
-472 458 -465 0
473 -462 465 0
473 -459 -465 0
-473 462 465 0
-473 459 -465 0
474 -463 465 0
474 -460 -465 0
-474 463 465 0
-474 460 -465 0
475 -458 465 0
475 -461 -465 0
-475 458 465 0
-475 461 -465 0
476 -459 465 0
476 -462 -465 0
-476 459 465 0
-476 462 -465 0
477 -460 465 0
477 -463 -465 0
-477 460 465 0
-477 463 -465 0
478 468 -474 0
-478 474 0
-478 -468 0
-479 473 0
479 467 468 -473 474 0
-479 468 -474 0
479 467 -468 -473 -474 0
-479 -468 474 0
-479 -467 0
480 -479 0
-480 478 479 0
480 -478 0
-481 472 0
481 466 468 -472 474 0
-481 468 -474 0
481 466 -468 -472 -474 0
-481 -468 474 0
-481 -466 0
482 467 473 -481 0
-482 481 0
-482 467 -473 0
-482 -467 473 0
482 -467 -473 -481 0
483 -482 0
-483 480 482 0
483 -480 0
-484 483 0
484 -483 0
-485 0
-486 0
487 -486 0
-487 485 486 0
487 -485 0
-488 0
489 -488 0
-489 488 0
490 -489 0
-490 487 489 0
490 -487 0
-491 484 0
491 -484 -490 0
-491 490 0
492 -491 0
-492 484 491 0
492 -484 0
493 492 0
-493 -492 0
494 468 -477 0
-494 477 0
-494 -468 0
-495 476 0
495 467 468 -476 477 0
-495 468 -477 0
495 467 -468 -476 -477 0
-495 -468 477 0
-495 -467 0
496 -495 0
-496 494 495 0
496 -494 0
-497 475 0
497 466 468 -475 477 0
-497 468 -477 0
497 466 -468 -475 -477 0
-497 -468 477 0
-497 -466 0
498 467 476 -497 0
-498 497 0
-498 467 -476 0
-498 -467 476 0
498 -467 -476 -497 0
499 -498 0
-499 496 498 0
499 -496 0
-500 493 0
500 -493 -499 0
-500 499 0
-501 492 0
501 -492 500 0
-501 -500 0
-502 500 0
502 -500 0
-503 501 0
503 -501 502 0
-503 -502 0
504 474 -477 0
-504 477 0
-504 -474 0
-505 476 0
505 473 474 -476 477 0
-505 474 -477 0
505 473 -474 -476 -477 0
-505 -474 477 0
-505 -473 0
506 -505 0
-506 504 505 0
506 -504 0
-507 475 0
507 472 474 -475 477 0
-507 474 -477 0
507 472 -474 -475 -477 0
-507 -474 477 0
-507 -472 0
508 473 476 -507 0
-508 507 0
-508 473 -476 0
-508 -473 476 0
508 -473 -476 -507 0
509 -508 0
-509 506 508 0
509 -506 0
-510 503 0
510 -503 -509 0
-510 509 0
-511 501 0
511 -501 510 0
-511 -510 0
512 -510 0
-512 502 510 0
512 -502 0
513 511 0
-513 -511 0
-514 512 0
514 -512 -513 0
-514 513 0
-515 0
-516 0
517 -516 0
-517 515 516 0
517 -515 0
-518 0
519 -518 0
-519 518 0
520 -519 0
-520 517 519 0
520 -517 0
-521 514 0
521 -514 -520 0
-521 520 0
-522 511 0
522 -511 521 0
-522 -521 0
523 -521 0
-523 512 521 0
523 -512 0
-524 522 0
524 -522 523 0
-524 -523 0
525 -466 524 0
525 -472 -524 0
-525 466 524 0
-525 472 -524 0
526 -467 524 0
526 -473 -524 0
-526 467 524 0
-526 473 -524 0
527 -468 524 0
527 -474 -524 0
-527 468 524 0
-527 474 -524 0
528 -472 524 0
528 -466 -524 0
-528 472 524 0
-528 466 -524 0
529 -473 524 0
529 -467 -524 0
-529 473 524 0
-529 467 -524 0
530 -474 524 0
530 -468 -524 0
-530 474 524 0
-530 468 -524 0
531 522 0
-531 -522 0
-532 523 0
532 -523 -531 0
-532 531 0
533 532 0
-533 -532 0
534 -525 533 0
534 -475 -533 0
-534 525 533 0
-534 475 -533 0
535 -526 533 0
535 -476 -533 0
-535 526 533 0
-535 476 -533 0
536 -527 533 0
536 -477 -533 0
-536 527 533 0
-536 477 -533 0
537 -475 533 0
537 -525 -533 0
-537 475 533 0
-537 525 -533 0
538 -476 533 0
538 -526 -533 0
-538 476 533 0
-538 526 -533 0
539 -477 533 0
539 -527 -533 0
-539 477 533 0
-539 527 -533 0
540 -528 0
-540 528 0
541 -529 0
-541 529 0
542 -530 0
-542 530 0
543 536 -542 0
-543 542 0
-543 -536 0
-544 541 0
544 535 536 -541 542 0
-544 536 -542 0
544 535 -536 -541 -542 0
-544 -536 542 0
-544 -535 0
545 -544 0
-545 543 544 0
545 -543 0
-546 540 0
546 534 536 -540 542 0
-546 536 -542 0
546 534 -536 -540 -542 0
-546 -536 542 0
-546 -534 0
547 535 541 -546 0
-547 546 0
-547 535 -541 0
-547 -535 541 0
547 -535 -541 -546 0
548 -547 0
-548 545 547 0
548 -545 0
-549 548 0
549 -548 0
-550 0
-551 0
552 -551 0
-552 550 551 0
552 -550 0
-553 0
554 -553 0
-554 553 0
555 -554 0
-555 552 554 0
555 -552 0
-556 549 0
556 -549 -555 0
-556 555 0
557 -556 0
-557 549 556 0
557 -549 0
558 557 0
-558 -557 0
559 -534 558 0
559 -540 -558 0
-559 534 558 0
-559 540 -558 0
560 -535 558 0
560 -541 -558 0
-560 535 558 0
-560 541 -558 0
561 -536 558 0
561 -542 -558 0
-561 536 558 0
-561 542 -558 0
562 -540 558 0
562 -534 -558 0
-562 540 558 0
-562 534 -558 0
563 -541 558 0
563 -535 -558 0
-563 541 558 0
-563 535 -558 0
564 -542 558 0
564 -536 -558 0
-564 542 558 0
-564 536 -558 0
565 130 -559 0
565 -130 559 0
-565 130 559 0
-565 -130 -559 0
566 131 -560 0
566 -131 560 0
-566 131 560 0
-566 -131 -560 0
567 132 -561 0
567 -132 561 0
-567 132 561 0
-567 -132 -561 0
568 133 -562 0
568 -133 562 0
-568 133 562 0
-568 -133 -562 0
569 134 -563 0
569 -134 563 0
-569 134 563 0
-569 -134 -563 0
570 135 -564 0
570 -135 564 0
-570 135 564 0
-570 -135 -564 0
571 121 -537 0
571 -121 537 0
-571 121 537 0
-571 -121 -537 0
572 122 -538 0
572 -122 538 0
-572 122 538 0
-572 -122 -538 0
573 123 -539 0
573 -123 539 0
-573 123 539 0
-573 -123 -539 0
574 97 -469 0
574 -97 469 0
-574 97 469 0
-574 -97 -469 0
575 98 -470 0
575 -98 470 0
-575 98 470 0
-575 -98 -470 0
576 99 -471 0
576 -99 471 0
-576 99 471 0
-576 -99 -471 0
577 61 -336 0
577 -61 336 0
-577 61 336 0
-577 -61 -336 0
578 62 -337 0
578 -62 337 0
-578 62 337 0
-578 -62 -337 0
579 63 -338 0
579 -63 338 0
-579 63 338 0
-579 -63 -338 0
580 -567 0
-580 565 566 567 0
580 -566 0
580 -565 0
581 -570 0
-581 568 569 570 0
581 -569 0
581 -568 0
582 -573 0
-582 571 572 573 0
582 -572 0
582 -571 0
583 -576 0
-583 574 575 576 0
583 -575 0
583 -574 0
584 -579 0
-584 577 578 579 0
584 -578 0
584 -577 0
585 -584 0
-585 580 581 582 583 584 0
585 -583 0
585 -582 0
585 -581 0
585 -580 0
585 0
